set Actividades:= Inicio A B C D E F G H I J K L M N O Fin;

set Precedencias:=
Inicio A
Inicio B
A C
A D
B E
B F
C G
D H
E I
F J
F K
G L
H M
I N
J O
L Fin
M Fin
N Fin
O Fin
K Fin;

param:
	TN	CN	TA	CA	CM:=
Inicio	0	0	0	0	0
A	3	4	2	6	2
B	4	5	2	10	2.5
C	5	6	2	9	1
D	6	7.5	4	10	1.25
E	4	5.3	3	7	1.7
F	5	6.2	3	7.8	0.8
G	5	6.1	3	9	1.45
H	5	6.5	3	9.5	1.5
I	4	5.6	3	7	1.4
J	4	5.4	3	11	5.6
K	8	12	4	18	1.5
L	4	6	4	6	0
M	5	6.5	4	7.8	1.3
N	5	7.2	5	7.2	0
O	4	5.8	2	7	0.6
Fin	0	0	0	0	0;

